TCS_Benchmarks/redos_fix/corpus1_output_distinct_3609_3608_0_0.smt2
(set-logic QF_S)
(declare-const x String)
(assert (str.in.re x (re.inter  (re.++ (re.* (re.union (re.range "\u{00}" "\u{09}") (re.range "\u{0b}" "\u{0c}") (re.range "\u{0e}" "\u{84}") (re.range "\u{86}" "\u{ff}")) ) (re.+  (re.union  (str.to.re "\u{2d}") (re.union (re.range "\u{30}" "\u{39}") (re.union (re.range "\u{41}" "\u{5a}") (re.union (re.range "\u{61}" "\u{7a}")  (str.to.re "\u{5f}"))))) ))  (re.++ (re.* (re.union (re.range "\u{00}" "\u{09}") (re.range "\u{0b}" "\u{0c}") (re.range "\u{0e}" "\u{84}") (re.range "\u{86}" "\u{ff}")) ) (re.++  (re.++  (str.to.re "\u{76}") (re.++  (str.to.re "\u{69}") (re.++  (str.to.re "\u{64}") (re.++  (str.to.re "\u{65}") (re.++  (str.to.re "\u{6f}") (re.++  (str.to.re "\u{70}") (re.++  (str.to.re "\u{6c}") (re.++  (str.to.re "\u{61}") (re.++  (str.to.re "\u{79}") (re.++  (str.to.re "\u{3f}") (re.++  (str.to.re "\u{64}") (re.++  (str.to.re "\u{6f}") (re.++  (str.to.re "\u{63}") (re.++  (str.to.re "\u{69}") (re.++  (str.to.re "\u{64}")  (str.to.re "\u{3d}")))))))))))))))) (re.+  (re.union  (str.to.re "\u{2d}") (re.union (re.range "\u{30}" "\u{39}") (re.union (re.range "\u{41}" "\u{5a}") (re.union (re.range "\u{61}" "\u{7a}")  (str.to.re "\u{5f}"))))) ))) )))
(check-sat)
(get-model)