TCS_Benchmarks/redos_fix/corpus1_output_distinct_3609_3608_0_0.txt
(.*)([\-0-9A-Za-z_]+)
(.*)(videoplay\?docid=)([\-0-9A-Za-z_]+)